<instance format="XCSP3" type="COP">
  <variables>
    <array id="s" note="Start time of operation j for job i" size="[10][10]"> 0..644 </array>
    <array id="e" note="End time of last operation of job i" size="[10]"> 0..644 </array>
    <array id="d" note="Duration of operation j for job i" size="[10][10]">
      <domain for="d[0][]"> 9 10 27 28 34 37 59 78 82 92 </domain>
      <domain for="d[1][]"> 9 16 21 22 45 50 54 56 69 97 </domain>
      <domain for="d[2][]"> 1 8 16 24 26 49 52 53 91 98 </domain>
      <domain for="d[3][]"> 9 11 31 35 38 59 67 91 99 </domain>
      <domain for="d[4][]"> 9 17 20 22 37 43 77 87 90 94 </domain>
      <domain for="d[5][]"> 13 15 18 25 26 59 69 73 75 84 </domain>
      <domain for="d[6][]"> 5 17 33 41 52 64 67 75 89 </domain>
      <domain for="d[7][]"> 20 26 31 37 41 65 67 82 84 </domain>
      <domain for="d[8][]"> 1 8 19 21 23 31 46 67 94 95 </domain>
      <domain for="d[9][]"> 10 13 30 35 44 51 62 72 80 90 </domain>
    </array>
    <array id="w" note="Which machine for operation j of job i" size="[10][10]"> 0..9 </array>
    <array id="sd" note="Start (dual) time of job i, machine k" size="[10][10]"> 0..644 </array>
  </variables>
  <constraints>
    <group>
      <intension> eq(%0,add(%1,%2)) </intension>
      <args> e[0] s[0][9] d[0][9] </args>
      <args> e[1] s[1][9] d[1][9] </args>
      <args> e[2] s[2][9] d[2][9] </args>
      <args> e[3] s[3][9] d[3][9] </args>
      <args> e[4] s[4][9] d[4][9] </args>
      <args> e[5] s[5][9] d[5][9] </args>
      <args> e[6] s[6][9] d[6][9] </args>
      <args> e[7] s[7][9] d[7][9] </args>
      <args> e[8] s[8][9] d[8][9] </args>
      <args> e[9] s[9][9] d[9][9] </args>
    </group>
    <group>
      <allDifferent> %... </allDifferent>
      <args> w[0][] </args>
      <args> w[1][] </args>
      <args> w[2][] </args>
      <args> w[3][] </args>
      <args> w[4][] </args>
      <args> w[5][] </args>
      <args> w[6][] </args>
      <args> w[7][] </args>
      <args> w[8][] </args>
      <args> w[9][] </args>
    </group>
    <block>
      <group>
        <extension>
          <list> %0 %1 </list>
          <supports> (0,27)(1,28)(2,37)(3,82)(4,9)(5,78)(6,10)(7,34)(8,59)(9,92) </supports>
        </extension>
        <args> w[0][0] d[0][0] </args>
        <args> w[0][1] d[0][1] </args>
        <args> w[0][2] d[0][2] </args>
        <args> w[0][3] d[0][3] </args>
        <args> w[0][4] d[0][4] </args>
        <args> w[0][5] d[0][5] </args>
        <args> w[0][6] d[0][6] </args>
        <args> w[0][7] d[0][7] </args>
        <args> w[0][8] d[0][8] </args>
        <args> w[0][9] d[0][9] </args>
      </group>
      <group>
        <extension>
          <list> %0 %1 </list>
          <supports> (0,56)(1,50)(2,21)(3,22)(4,16)(5,45)(6,54)(7,69)(8,97)(9,9) </supports>
        </extension>
        <args> w[1][0] d[1][0] </args>
        <args> w[1][1] d[1][1] </args>
        <args> w[1][2] d[1][2] </args>
        <args> w[1][3] d[1][3] </args>
        <args> w[1][4] d[1][4] </args>
        <args> w[1][5] d[1][5] </args>
        <args> w[1][6] d[1][6] </args>
        <args> w[1][7] d[1][7] </args>
        <args> w[1][8] d[1][8] </args>
        <args> w[1][9] d[1][9] </args>
      </group>
      <group>
        <extension>
          <list> %0 %1 </list>
          <supports> (0,98)(1,8)(2,16)(3,24)(4,1)(5,52)(6,53)(7,49)(8,26)(9,91) </supports>
        </extension>
        <args> w[2][0] d[2][0] </args>
        <args> w[2][1] d[2][1] </args>
        <args> w[2][2] d[2][2] </args>
        <args> w[2][3] d[2][3] </args>
        <args> w[2][4] d[2][4] </args>
        <args> w[2][5] d[2][5] </args>
        <args> w[2][6] d[2][6] </args>
        <args> w[2][7] d[2][7] </args>
        <args> w[2][8] d[2][8] </args>
        <args> w[2][9] d[2][9] </args>
      </group>
      <group>
        <extension>
          <list> %0 %1 </list>
          <supports> (0,38)(1,31)(2,99)(3,59)(4,35)(5,11)(6,9)(7,31)(8,67)(9,91) </supports>
        </extension>
        <args> w[3][0] d[3][0] </args>
        <args> w[3][1] d[3][1] </args>
        <args> w[3][2] d[3][2] </args>
        <args> w[3][3] d[3][3] </args>
        <args> w[3][4] d[3][4] </args>
        <args> w[3][5] d[3][5] </args>
        <args> w[3][6] d[3][6] </args>
        <args> w[3][7] d[3][7] </args>
        <args> w[3][8] d[3][8] </args>
        <args> w[3][9] d[3][9] </args>
      </group>
      <group>
        <extension>
          <list> %0 %1 </list>
          <supports> (0,22)(1,9)(2,94)(3,20)(4,37)(5,43)(6,90)(7,87)(8,17)(9,77) </supports>
        </extension>
        <args> w[4][0] d[4][0] </args>
        <args> w[4][1] d[4][1] </args>
        <args> w[4][2] d[4][2] </args>
        <args> w[4][3] d[4][3] </args>
        <args> w[4][4] d[4][4] </args>
        <args> w[4][5] d[4][5] </args>
        <args> w[4][6] d[4][6] </args>
        <args> w[4][7] d[4][7] </args>
        <args> w[4][8] d[4][8] </args>
        <args> w[4][9] d[4][9] </args>
      </group>
      <group>
        <extension>
          <list> %0 %1 </list>
          <supports> (0,25)(1,73)(2,59)(3,26)(4,69)(5,75)(6,18)(7,15)(8,13)(9,84) </supports>
        </extension>
        <args> w[5][0] d[5][0] </args>
        <args> w[5][1] d[5][1] </args>
        <args> w[5][2] d[5][2] </args>
        <args> w[5][3] d[5][3] </args>
        <args> w[5][4] d[5][4] </args>
        <args> w[5][5] d[5][5] </args>
        <args> w[5][6] d[5][6] </args>
        <args> w[5][7] d[5][7] </args>
        <args> w[5][8] d[5][8] </args>
        <args> w[5][9] d[5][9] </args>
      </group>
      <group>
        <extension>
          <list> %0 %1 </list>
          <supports> (0,17)(1,67)(2,5)(3,89)(4,75)(5,33)(6,41)(7,52)(8,64)(9,52) </supports>
        </extension>
        <args> w[6][0] d[6][0] </args>
        <args> w[6][1] d[6][1] </args>
        <args> w[6][2] d[6][2] </args>
        <args> w[6][3] d[6][3] </args>
        <args> w[6][4] d[6][4] </args>
        <args> w[6][5] d[6][5] </args>
        <args> w[6][6] d[6][6] </args>
        <args> w[6][7] d[6][7] </args>
        <args> w[6][8] d[6][8] </args>
        <args> w[6][9] d[6][9] </args>
      </group>
      <group>
        <extension>
          <list> %0 %1 </list>
          <supports> (0,65)(1,20)(2,41)(3,82)(4,26)(5,67)(6,84)(7,37)(8,31)(9,31) </supports>
        </extension>
        <args> w[7][0] d[7][0] </args>
        <args> w[7][1] d[7][1] </args>
        <args> w[7][2] d[7][2] </args>
        <args> w[7][3] d[7][3] </args>
        <args> w[7][4] d[7][4] </args>
        <args> w[7][5] d[7][5] </args>
        <args> w[7][6] d[7][6] </args>
        <args> w[7][7] d[7][7] </args>
        <args> w[7][8] d[7][8] </args>
        <args> w[7][9] d[7][9] </args>
      </group>
      <group>
        <extension>
          <list> %0 %1 </list>
          <supports> (0,95)(1,31)(2,46)(3,23)(4,94)(5,8)(6,67)(7,21)(8,19)(9,1) </supports>
        </extension>
        <args> w[8][0] d[8][0] </args>
        <args> w[8][1] d[8][1] </args>
        <args> w[8][2] d[8][2] </args>
        <args> w[8][3] d[8][3] </args>
        <args> w[8][4] d[8][4] </args>
        <args> w[8][5] d[8][5] </args>
        <args> w[8][6] d[8][6] </args>
        <args> w[8][7] d[8][7] </args>
        <args> w[8][8] d[8][8] </args>
        <args> w[8][9] d[8][9] </args>
      </group>
      <group>
        <extension>
          <list> %0 %1 </list>
          <supports> (0,80)(1,51)(2,72)(3,13)(4,62)(5,90)(6,30)(7,44)(8,35)(9,10) </supports>
        </extension>
        <args> w[9][0] d[9][0] </args>
        <args> w[9][1] d[9][1] </args>
        <args> w[9][2] d[9][2] </args>
        <args> w[9][3] d[9][3] </args>
        <args> w[9][4] d[9][4] </args>
        <args> w[9][5] d[9][5] </args>
        <args> w[9][6] d[9][6] </args>
        <args> w[9][7] d[9][7] </args>
        <args> w[9][8] d[9][8] </args>
        <args> w[9][9] d[9][9] </args>
      </group>
    </block>
    <group>
      <intension> le(add(%0,%1),%2) </intension>
      <args> s[0][0] d[0][0] s[0][1] </args>
      <args> s[0][1] d[0][1] s[0][2] </args>
      <args> s[0][2] d[0][2] s[0][3] </args>
      <args> s[0][3] d[0][3] s[0][4] </args>
      <args> s[0][4] d[0][4] s[0][5] </args>
      <args> s[0][5] d[0][5] s[0][6] </args>
      <args> s[0][6] d[0][6] s[0][7] </args>
      <args> s[0][7] d[0][7] s[0][8] </args>
      <args> s[0][8] d[0][8] s[0][9] </args>
      <args> s[1][0] d[1][0] s[1][1] </args>
      <args> s[1][1] d[1][1] s[1][2] </args>
      <args> s[1][2] d[1][2] s[1][3] </args>
      <args> s[1][3] d[1][3] s[1][4] </args>
      <args> s[1][4] d[1][4] s[1][5] </args>
      <args> s[1][5] d[1][5] s[1][6] </args>
      <args> s[1][6] d[1][6] s[1][7] </args>
      <args> s[1][7] d[1][7] s[1][8] </args>
      <args> s[1][8] d[1][8] s[1][9] </args>
      <args> s[2][0] d[2][0] s[2][1] </args>
      <args> s[2][1] d[2][1] s[2][2] </args>
      <args> s[2][2] d[2][2] s[2][3] </args>
      <args> s[2][3] d[2][3] s[2][4] </args>
      <args> s[2][4] d[2][4] s[2][5] </args>
      <args> s[2][5] d[2][5] s[2][6] </args>
      <args> s[2][6] d[2][6] s[2][7] </args>
      <args> s[2][7] d[2][7] s[2][8] </args>
      <args> s[2][8] d[2][8] s[2][9] </args>
      <args> s[3][0] d[3][0] s[3][1] </args>
      <args> s[3][1] d[3][1] s[3][2] </args>
      <args> s[3][2] d[3][2] s[3][3] </args>
      <args> s[3][3] d[3][3] s[3][4] </args>
      <args> s[3][4] d[3][4] s[3][5] </args>
      <args> s[3][5] d[3][5] s[3][6] </args>
      <args> s[3][6] d[3][6] s[3][7] </args>
      <args> s[3][7] d[3][7] s[3][8] </args>
      <args> s[3][8] d[3][8] s[3][9] </args>
      <args> s[4][0] d[4][0] s[4][1] </args>
      <args> s[4][1] d[4][1] s[4][2] </args>
      <args> s[4][2] d[4][2] s[4][3] </args>
      <args> s[4][3] d[4][3] s[4][4] </args>
      <args> s[4][4] d[4][4] s[4][5] </args>
      <args> s[4][5] d[4][5] s[4][6] </args>
      <args> s[4][6] d[4][6] s[4][7] </args>
      <args> s[4][7] d[4][7] s[4][8] </args>
      <args> s[4][8] d[4][8] s[4][9] </args>
      <args> s[5][0] d[5][0] s[5][1] </args>
      <args> s[5][1] d[5][1] s[5][2] </args>
      <args> s[5][2] d[5][2] s[5][3] </args>
      <args> s[5][3] d[5][3] s[5][4] </args>
      <args> s[5][4] d[5][4] s[5][5] </args>
      <args> s[5][5] d[5][5] s[5][6] </args>
      <args> s[5][6] d[5][6] s[5][7] </args>
      <args> s[5][7] d[5][7] s[5][8] </args>
      <args> s[5][8] d[5][8] s[5][9] </args>
      <args> s[6][0] d[6][0] s[6][1] </args>
      <args> s[6][1] d[6][1] s[6][2] </args>
      <args> s[6][2] d[6][2] s[6][3] </args>
      <args> s[6][3] d[6][3] s[6][4] </args>
      <args> s[6][4] d[6][4] s[6][5] </args>
      <args> s[6][5] d[6][5] s[6][6] </args>
      <args> s[6][6] d[6][6] s[6][7] </args>
      <args> s[6][7] d[6][7] s[6][8] </args>
      <args> s[6][8] d[6][8] s[6][9] </args>
      <args> s[7][0] d[7][0] s[7][1] </args>
      <args> s[7][1] d[7][1] s[7][2] </args>
      <args> s[7][2] d[7][2] s[7][3] </args>
      <args> s[7][3] d[7][3] s[7][4] </args>
      <args> s[7][4] d[7][4] s[7][5] </args>
      <args> s[7][5] d[7][5] s[7][6] </args>
      <args> s[7][6] d[7][6] s[7][7] </args>
      <args> s[7][7] d[7][7] s[7][8] </args>
      <args> s[7][8] d[7][8] s[7][9] </args>
      <args> s[8][0] d[8][0] s[8][1] </args>
      <args> s[8][1] d[8][1] s[8][2] </args>
      <args> s[8][2] d[8][2] s[8][3] </args>
      <args> s[8][3] d[8][3] s[8][4] </args>
      <args> s[8][4] d[8][4] s[8][5] </args>
      <args> s[8][5] d[8][5] s[8][6] </args>
      <args> s[8][6] d[8][6] s[8][7] </args>
      <args> s[8][7] d[8][7] s[8][8] </args>
      <args> s[8][8] d[8][8] s[8][9] </args>
      <args> s[9][0] d[9][0] s[9][1] </args>
      <args> s[9][1] d[9][1] s[9][2] </args>
      <args> s[9][2] d[9][2] s[9][3] </args>
      <args> s[9][3] d[9][3] s[9][4] </args>
      <args> s[9][4] d[9][4] s[9][5] </args>
      <args> s[9][5] d[9][5] s[9][6] </args>
      <args> s[9][6] d[9][6] s[9][7] </args>
      <args> s[9][7] d[9][7] s[9][8] </args>
      <args> s[9][8] d[9][8] s[9][9] </args>
    </group>
    <block class="channeling">
      <group>
        <element>
          <list> sd[0][] </list>
          <index> %0 </index>
          <value> %1 </value>
        </element>
        <args> w[0][0] s[0][0] </args>
        <args> w[0][1] s[0][1] </args>
        <args> w[0][2] s[0][2] </args>
        <args> w[0][3] s[0][3] </args>
        <args> w[0][4] s[0][4] </args>
        <args> w[0][5] s[0][5] </args>
        <args> w[0][6] s[0][6] </args>
        <args> w[0][7] s[0][7] </args>
        <args> w[0][8] s[0][8] </args>
        <args> w[0][9] s[0][9] </args>
      </group>
      <group>
        <element>
          <list> sd[1][] </list>
          <index> %0 </index>
          <value> %1 </value>
        </element>
        <args> w[1][0] s[1][0] </args>
        <args> w[1][1] s[1][1] </args>
        <args> w[1][2] s[1][2] </args>
        <args> w[1][3] s[1][3] </args>
        <args> w[1][4] s[1][4] </args>
        <args> w[1][5] s[1][5] </args>
        <args> w[1][6] s[1][6] </args>
        <args> w[1][7] s[1][7] </args>
        <args> w[1][8] s[1][8] </args>
        <args> w[1][9] s[1][9] </args>
      </group>
      <group>
        <element>
          <list> sd[2][] </list>
          <index> %0 </index>
          <value> %1 </value>
        </element>
        <args> w[2][0] s[2][0] </args>
        <args> w[2][1] s[2][1] </args>
        <args> w[2][2] s[2][2] </args>
        <args> w[2][3] s[2][3] </args>
        <args> w[2][4] s[2][4] </args>
        <args> w[2][5] s[2][5] </args>
        <args> w[2][6] s[2][6] </args>
        <args> w[2][7] s[2][7] </args>
        <args> w[2][8] s[2][8] </args>
        <args> w[2][9] s[2][9] </args>
      </group>
      <group>
        <element>
          <list> sd[3][] </list>
          <index> %0 </index>
          <value> %1 </value>
        </element>
        <args> w[3][0] s[3][0] </args>
        <args> w[3][1] s[3][1] </args>
        <args> w[3][2] s[3][2] </args>
        <args> w[3][3] s[3][3] </args>
        <args> w[3][4] s[3][4] </args>
        <args> w[3][5] s[3][5] </args>
        <args> w[3][6] s[3][6] </args>
        <args> w[3][7] s[3][7] </args>
        <args> w[3][8] s[3][8] </args>
        <args> w[3][9] s[3][9] </args>
      </group>
      <group>
        <element>
          <list> sd[4][] </list>
          <index> %0 </index>
          <value> %1 </value>
        </element>
        <args> w[4][0] s[4][0] </args>
        <args> w[4][1] s[4][1] </args>
        <args> w[4][2] s[4][2] </args>
        <args> w[4][3] s[4][3] </args>
        <args> w[4][4] s[4][4] </args>
        <args> w[4][5] s[4][5] </args>
        <args> w[4][6] s[4][6] </args>
        <args> w[4][7] s[4][7] </args>
        <args> w[4][8] s[4][8] </args>
        <args> w[4][9] s[4][9] </args>
      </group>
      <group>
        <element>
          <list> sd[5][] </list>
          <index> %0 </index>
          <value> %1 </value>
        </element>
        <args> w[5][0] s[5][0] </args>
        <args> w[5][1] s[5][1] </args>
        <args> w[5][2] s[5][2] </args>
        <args> w[5][3] s[5][3] </args>
        <args> w[5][4] s[5][4] </args>
        <args> w[5][5] s[5][5] </args>
        <args> w[5][6] s[5][6] </args>
        <args> w[5][7] s[5][7] </args>
        <args> w[5][8] s[5][8] </args>
        <args> w[5][9] s[5][9] </args>
      </group>
      <group>
        <element>
          <list> sd[6][] </list>
          <index> %0 </index>
          <value> %1 </value>
        </element>
        <args> w[6][0] s[6][0] </args>
        <args> w[6][1] s[6][1] </args>
        <args> w[6][2] s[6][2] </args>
        <args> w[6][3] s[6][3] </args>
        <args> w[6][4] s[6][4] </args>
        <args> w[6][5] s[6][5] </args>
        <args> w[6][6] s[6][6] </args>
        <args> w[6][7] s[6][7] </args>
        <args> w[6][8] s[6][8] </args>
        <args> w[6][9] s[6][9] </args>
      </group>
      <group>
        <element>
          <list> sd[7][] </list>
          <index> %0 </index>
          <value> %1 </value>
        </element>
        <args> w[7][0] s[7][0] </args>
        <args> w[7][1] s[7][1] </args>
        <args> w[7][2] s[7][2] </args>
        <args> w[7][3] s[7][3] </args>
        <args> w[7][4] s[7][4] </args>
        <args> w[7][5] s[7][5] </args>
        <args> w[7][6] s[7][6] </args>
        <args> w[7][7] s[7][7] </args>
        <args> w[7][8] s[7][8] </args>
        <args> w[7][9] s[7][9] </args>
      </group>
      <group>
        <element>
          <list> sd[8][] </list>
          <index> %0 </index>
          <value> %1 </value>
        </element>
        <args> w[8][0] s[8][0] </args>
        <args> w[8][1] s[8][1] </args>
        <args> w[8][2] s[8][2] </args>
        <args> w[8][3] s[8][3] </args>
        <args> w[8][4] s[8][4] </args>
        <args> w[8][5] s[8][5] </args>
        <args> w[8][6] s[8][6] </args>
        <args> w[8][7] s[8][7] </args>
        <args> w[8][8] s[8][8] </args>
        <args> w[8][9] s[8][9] </args>
      </group>
      <group>
        <element>
          <list> sd[9][] </list>
          <index> %0 </index>
          <value> %1 </value>
        </element>
        <args> w[9][0] s[9][0] </args>
        <args> w[9][1] s[9][1] </args>
        <args> w[9][2] s[9][2] </args>
        <args> w[9][3] s[9][3] </args>
        <args> w[9][4] s[9][4] </args>
        <args> w[9][5] s[9][5] </args>
        <args> w[9][6] s[9][6] </args>
        <args> w[9][7] s[9][7] </args>
        <args> w[9][8] s[9][8] </args>
        <args> w[9][9] s[9][9] </args>
      </group>
    </block>
    <block>
      <noOverlap>
        <origins> sd[][0] </origins>
        <lengths> 27 56 98 38 22 25 17 65 95 80 </lengths>
      </noOverlap>
      <noOverlap>
        <origins> sd[][1] </origins>
        <lengths> 28 50 8 31 9 73 67 20 31 51 </lengths>
      </noOverlap>
      <noOverlap>
        <origins> sd[][2] </origins>
        <lengths> 37 21 16 99 94 59 5 41 46 72 </lengths>
      </noOverlap>
      <noOverlap>
        <origins> sd[][3] </origins>
        <lengths> 82 22 24 59 20 26 89 82 23 13 </lengths>
      </noOverlap>
      <noOverlap>
        <origins> sd[][4] </origins>
        <lengths> 9 16 1 35 37 69 75 26 94 62 </lengths>
      </noOverlap>
      <noOverlap>
        <origins> sd[][5] </origins>
        <lengths> 78 45 52 11 43 75 33 67 8 90 </lengths>
      </noOverlap>
      <noOverlap>
        <origins> sd[][6] </origins>
        <lengths> 10 54 53 9 90 18 41 84 67 30 </lengths>
      </noOverlap>
      <noOverlap>
        <origins> sd[][7] </origins>
        <lengths> 34 69 49 31 87 15 52 37 21 44 </lengths>
      </noOverlap>
      <noOverlap>
        <origins> sd[][8] </origins>
        <lengths> 59 97 26 67 17 13 64 31 19 35 </lengths>
      </noOverlap>
      <noOverlap>
        <origins> sd[][9] </origins>
        <lengths> 92 9 91 91 77 84 52 31 1 10 </lengths>
      </noOverlap>
    </block>
    <group class="redundantConstraints">
      <intension> ge(%0,%1) </intension>
      <args> e[0] 456 </args>
      <args> e[1] 439 </args>
      <args> e[2] 418 </args>
      <args> e[3] 471 </args>
      <args> e[4] 496 </args>
      <args> e[5] 457 </args>
      <args> e[6] 495 </args>
      <args> e[7] 484 </args>
      <args> e[8] 405 </args>
      <args> e[9] 487 </args>
    </group>
  </constraints>
  <objectives>
    <minimize type="maximum"> e[] </minimize>
  </objectives>
</instance>
